year_published           
-------------------------
1985                     
1986                     
1987                     
1997                     
1998                     
1999                     
2000                     
2003                     
2005                     
2006                     
